c Random generated cnf formula, satisfiable: false
p cnf 10 50
8 -2 5 0
-5 1 -4 0
6 -10 -8 0
-5 9 7 0
2 8 -4 0
9 -6 -3 0
-4 -2 10 0
-8 -4 -2 0
-1 -6 2 0
-3 -9 5 0
-8 4 5 0
9 7 6 0
-5 9 -3 0
-8 4 6 0
-2 -3 -5 0
8 2 4 0
4 5 -8 0
-8 -1 -2 0
-8 9 10 0
4 8 6 0
-10 -4 -2 0
-2 9 4 0
5 -4 -3 0
5 10 7 0
-4 -2 7 0
-6 -1 -7 0
-6 -1 -5 0
1 4 -3 0
-1 4 3 0
-2 -4 -3 0
7 -1 -10 0
-4 1 -5 0
3 4 5 0
6 -10 5 0
1 7 3 0
-2 5 7 0
3 -9 -5 0
2 8 -5 0
-1 -10 -8 0
8 -6 -10 0
5 3 6 0
7 -5 -4 0
3 -10 2 0
3 -6 2 0
4 -7 -2 0
4 -7 -6 0
10 7 4 0
5 -7 -9 0
10 6 -7 0
10 9 2 0
